* #variable= 96 #constraint= 32 #product= 240 sizeproduct= 480
min: +1 x1 x4 +1 x1 x10 -1 x1 x13 +1 x1 x25 -1 x1 x73 +1 x2 x5 +1 x2 x11 -1 x2 x14 +1 x2 x26 -1 x2 x74 +1 x3 x6 +1 x3 x12 -1 x3 x15 +1 x3 x27 -1 x3 x75 -1 x4 x7 -1 x4 x16 +1 x4 x28 -1 x4 x76 -1 x5 x8 -1 x5 x17 +1 x5 x29 -1 x5 x77 -1 x6 x9 -1 x6 x18 +1 x6 x30 -1 x6 x78 -1 x7 x10 -1 x7 x19 -1 x7 x31 +1 x7 x79 -1 x8 x11 -1 x8 x20 -1 x8 x32 +1 x8 x80 -1 x9 x12 -1 x9 x21 -1 x9 x33 +1 x9 x81 +1 x10 x22 +1 x10 x34 +1 x10 x82 +1 x11 x23 +1 x11 x35 +1 x11 x83 +1 x12 x24 +1 x12 x36 +1 x12 x84 -1 x13 x16 +1 x13 x22 +1 x13 x37 -1 x13 x85 -1 x14 x17 +1 x14 x23 +1 x14 x38 -1 x14 x86 -1 x15 x18 +1 x15 x24 +1 x15 x39 -1 x15 x87 -1 x16 x19 +1 x16 x40 +1 x16 x88 -1 x17 x20 +1 x17 x41 +1 x17 x89 -1 x18 x21 +1 x18 x42 +1 x18 x90 -1 x19 x22 +1 x19 x43 -1 x19 x91 -1 x20 x23 +1 x20 x44 -1 x20 x92 -1 x21 x24 +1 x21 x45 -1 x21 x93 +1 x22 x46 +1 x22 x94 +1 x23 x47 +1 x23 x95 +1 x24 x48 +1 x24 x96 +1 x25 x28 -1 x25 x34 +1 x25 x37 -1 x25 x49 +1 x26 x29 -1 x26 x35 +1 x26 x38 -1 x26 x50 +1 x27 x30 -1 x27 x36 +1 x27 x39 -1 x27 x51 -1 x28 x31 +1 x28 x40 +1 x28 x52 -1 x29 x32 +1 x29 x41 +1 x29 x53 -1 x30 x33 +1 x30 x42 +1 x30 x54 +1 x31 x34 +1 x31 x43 -1 x31 x55 +1 x32 x35 +1 x32 x44 -1 x32 x56 +1 x33 x36 +1 x33 x45 -1 x33 x57 -1 x34 x46 -1 x34 x58 -1 x35 x47 -1 x35 x59 -1 x36 x48 -1 x36 x60 -1 x37 x40 +1 x37 x46 -1 x37 x61 -1 x38 x41 +1 x38 x47 -1 x38 x62 -1 x39 x42 +1 x39 x48 -1 x39 x63 -1 x40 x43 -1 x40 x64 -1 x41 x44 -1 x41 x65 -1 x42 x45 -1 x42 x66 -1 x43 x46 -1 x43 x67 -1 x44 x47 -1 x44 x68 -1 x45 x48 -1 x45 x69 +1 x46 x70 +1 x47 x71 +1 x48 x72 +1 x49 x52 +1 x49 x58 +1 x49 x61 -1 x49 x73 +1 x50 x53 +1 x50 x59 +1 x50 x62 -1 x50 x74 +1 x51 x54 +1 x51 x60 +1 x51 x63 -1 x51 x75 +1 x52 x55 -1 x52 x64 -1 x52 x76 +1 x53 x56 -1 x53 x65 -1 x53 x77 +1 x54 x57 -1 x54 x66 -1 x54 x78 +1 x55 x58 -1 x55 x67 +1 x55 x79 +1 x56 x59 -1 x56 x68 +1 x56 x80 +1 x57 x60 -1 x57 x69 +1 x57 x81 -1 x58 x70 +1 x58 x82 -1 x59 x71 +1 x59 x83 -1 x60 x72 +1 x60 x84 -1 x61 x64 +1 x61 x70 +1 x61 x85 -1 x62 x65 +1 x62 x71 +1 x62 x86 -1 x63 x66 +1 x63 x72 +1 x63 x87 -1 x64 x67 -1 x64 x88 -1 x65 x68 -1 x65 x89 -1 x66 x69 -1 x66 x90 +1 x67 x70 -1 x67 x91 +1 x68 x71 -1 x68 x92 +1 x69 x72 -1 x69 x93 +1 x70 x94 +1 x71 x95 +1 x72 x96 -1 x73 x76 -1 x73 x82 +1 x73 x85 -1 x74 x77 -1 x74 x83 +1 x74 x86 -1 x75 x78 -1 x75 x84 +1 x75 x87 +1 x76 x79 +1 x76 x88 +1 x77 x80 +1 x77 x89 +1 x78 x81 +1 x78 x90 -1 x79 x82 -1 x79 x91 -1 x80 x83 -1 x80 x92 -1 x81 x84 -1 x81 x93 -1 x82 x94 -1 x83 x95 -1 x84 x96 +1 x85 x88 -1 x85 x94 +1 x86 x89 -1 x86 x95 +1 x87 x90 -1 x87 x96 +1 x88 x91 +1 x89 x92 +1 x90 x93 +1 x91 x94 +1 x92 x95 +1 x93 x96 ;
+1 x1 +1 x2 +1 x3 = 1 ;
+1 x4 +1 x5 +1 x6 = 1 ;
+1 x7 +1 x8 +1 x9 = 1 ;
+1 x10 +1 x11 +1 x12 = 1 ;
+1 x13 +1 x14 +1 x15 = 1 ;
+1 x16 +1 x17 +1 x18 = 1 ;
+1 x19 +1 x20 +1 x21 = 1 ;
+1 x22 +1 x23 +1 x24 = 1 ;
+1 x25 +1 x26 +1 x27 = 1 ;
+1 x28 +1 x29 +1 x30 = 1 ;
+1 x31 +1 x32 +1 x33 = 1 ;
+1 x34 +1 x35 +1 x36 = 1 ;
+1 x37 +1 x38 +1 x39 = 1 ;
+1 x40 +1 x41 +1 x42 = 1 ;
+1 x43 +1 x44 +1 x45 = 1 ;
+1 x46 +1 x47 +1 x48 = 1 ;
+1 x49 +1 x50 +1 x51 = 1 ;
+1 x52 +1 x53 +1 x54 = 1 ;
+1 x55 +1 x56 +1 x57 = 1 ;
+1 x58 +1 x59 +1 x60 = 1 ;
+1 x61 +1 x62 +1 x63 = 1 ;
+1 x64 +1 x65 +1 x66 = 1 ;
+1 x67 +1 x68 +1 x69 = 1 ;
+1 x70 +1 x71 +1 x72 = 1 ;
+1 x73 +1 x74 +1 x75 = 1 ;
+1 x76 +1 x77 +1 x78 = 1 ;
+1 x79 +1 x80 +1 x81 = 1 ;
+1 x82 +1 x83 +1 x84 = 1 ;
+1 x85 +1 x86 +1 x87 = 1 ;
+1 x88 +1 x89 +1 x90 = 1 ;
+1 x91 +1 x92 +1 x93 = 1 ;
+1 x94 +1 x95 +1 x96 = 1 ;
